12449
1 1 0 1 1 0 0 0 1 1 0 1 1 1 1 1 0 0 1 1
19 3 11 4 9 12 3 11 13 1 19 3 15 1 14 8 3 11 13 1 8 3 11 4 9 0 18 14 0 19 13 3 12 8 9 13 3 12 4 1 19 3 15 19 11 19 11 15 1 14 11 3 12 8 9 19 3 15 19 14 19 0 8 4 9 19 3 8 4 9 1 18 13 19 0 19 3 15 19 4 1 18 14 0 19 19 18 13 19 12 0 18 1 0 0 13 3 12 4 9